c IN1002 Introduction to Algorithms!
c top secret ID string d1dd0c73c32
c 12 variables and 50 clauses
p cnf 12 50
c each line is a clause, 0 marks the end
-11 -7 12 0
2 -2 -12 0
6 8 11 0
7 12 10 0
-12 -1 -4 0
5 8 -12 0
-1 7 5 0
1 3 10 0
8 -12 -3 0
-4 -10 2 0
-1 -2 3 0
-10 8 3 0
8 3 3 0
-3 2 0
-5 -10 0
5 -6 10 0
5 5 5 0
-3 -5 -3 0
-4 -10 -3 0
5 1 0
-4 12 11 0
11 -11 7 0
1 12 -1 0
-6 -2 -12 0
10 5 2 0
-12 -3 9 0
10 -9 3 0
4 3 11 0
-12 11 -10 0
-1 6 3 0
-12 -11 4 0
-12 -12 5 0
9 3 6 0
-4 9 -8 0
-2 7 11 0
-12 7 -2 0
9 6 1 0
1 -2 -9 0
-1 -10 0
4 12 10 0
-4 -11 11 0
12 -9 11 0
6 -12 4 0
-2 2 4 0
8 -4 4 0
8 -8 -11 0
6 -12 3 0
-5 8 0
8 12 12 0
-1 -12 9 0
c Good luck!
